l=3748;
a=2;
setup_costs=[|2,1,
|1,0,
|0,0|];
setup_times=[|3,1,
|1,0,
|0,0|];
m=5;
min_cap=[0,0,0,0,0];
max_cap=[17,20,17,18,18];

initState=[1,2,2,1,1];
s=3;
m_a_s = [|0,909,1437,
|0,0,2673,
|303,734,883,
|0,0,2015,
|0,1709,1786|];
m_a_e = [|0,1323,2737,
|0,0,3075,
|477,816,3604,
|0,0,3233,
|0,1756,3348|];
n=100;
eligible_machine = [{5,1,3},
{3,4},
{2,5},
{4,2,3},
{3,4,5},
{3,1,4},
{1,2,4,5},
{4,1,3,5},
{3,2,4,5},
{5,1,2,3},
{2,5},
{2,4},
{2,4},
{3,4,5},
{2,1,4},
{4,1,2},
{5,1,2,3},
{3,2,5},
{4,1,2,3},
{4,5},
{5,1,3,4},
{2,1},
{1,3,5},
{2,1,4},
{5,1,3},
{5,1,3,4},
{3,1},
{4,5},
{2,4,5},
{1,2,3},
{1,2,5},
{4,5},
{4,3,5},
{2,1},
{5,2,3},
{1,3,4},
{4,2},
{2,1,3,5},
{1,2,3},
{5,1,2,3,4},
{1,2,3},
{2,1,3,5},
{1,3,5},
{5,1,3,4},
{4,1,3},
{1,2,3,4},
{4,2,3,5},
{2,1,4,5},
{2,3,4},
{5,1,3,4},
{1,2,3},
{4,1,2,5},
{5,1},
{1,2,3},
{4,1,2,3},
{2,3},
{4},
{5,3,4},
{5,1,2,3,4},
{5,1,4},
{3,2,4},
{1,5},
{4,2},
{1,5},
{4,5},
{2,3,4,5},
{2,5},
{5,1,4},
{3,2},
{1,2},
{3,1,2,4},
{3,2},
{2},
{1},
{1,3,4,5},
{3,2,5},
{1,5},
{3,1,2,4,5},
{2,1},
{5,1,2},
{5,3},
{3,4},
{4,1,2,3},
{4,1},
{2,3,4,5},
{3,2},
{3},
{4,1,2},
{1,3,5},
{1},
{5,1},
{1,2,3,5},
{4,1},
{1},
{3,2,5},
{2,1,4,5},
{4,2},
{2,4,5},
{3,1,2,4,5},
{2,3}];
earliest_start=[229,260,194,257,233,20,21,207,40,198,257,80,204,33,254,185,16,151,161,56,103,88,22,91,280,192,101,214,111,87,63,38,210,280,203,276,225,145,182,23,169,57,192,52,156,20,111,200,8,99,96,83,139,167,228,140,238,103,261,40,204,92,96,238,134,218,155,208,114,262,244,156,253,138,171,45,181,254,219,259,81,186,205,12,276,265,184,42,52,62,38,122,168,142,103,77,245,238,203,222];
latest_end=[233,273,235,258,254,23,34,225,55,231,263,84,224,39,273,199,26,172,170,80,106,106,29,98,283,228,112,248,135,103,69,64,224,320,221,286,235,151,208,26,176,82,195,81,172,28,147,206,12,123,99,102,157,174,232,156,244,131,279,64,222,100,118,256,137,238,189,218,149,273,286,173,259,150,178,59,188,267,256,285,85,219,234,19,305,297,215,66,54,68,64,127,172,173,136,82,281,279,232,233];
min_time=[1,4,10,1,7,1,9,8,4,10,3,1,6,3,10,6,4,9,3,5,1,4,4,2,3,8,5,9,9,10,2,6,6,9,4,3,5,3,7,3,2,6,2,9,10,8,8,4,2,5,1,5,6,2,2,4,6,6,7,6,9,2,5,10,1,5,7,6,10,7,9,8,5,9,3,3,2,8,9,7,2,10,9,2,8,8,7,8,2,2,9,5,2,10,9,4,9,10,9,8];
max_time=[10,7,10,6,7,2,9,9,9,10,3,6,7,9,10,7,9,10,8,8,8,10,10,9,8,9,7,9,10,10,3,9,9,9,5,8,7,7,7,7,5,7,10,10,10,9,10,10,7,8,10,5,6,2,4,9,7,9,8,8,10,7,9,10,5,5,9,6,10,7,10,9,10,9,7,8,9,8,10,10,6,10,9,10,9,8,8,8,6,6,9,7,8,10,9,4,10,10,9,8];
size=[4,2,3,5,4,2,1,1,4,2,2,3,4,4,4,3,2,3,3,3,1,1,1,1,1,2,3,2,5,4,1,5,1,3,5,2,4,1,1,1,2,5,5,2,2,2,2,1,1,2,2,4,4,4,4,4,1,4,3,2,3,4,4,3,4,2,3,4,4,1,2,5,2,3,4,2,4,5,2,5,3,1,2,3,2,4,5,5,3,5,1,4,3,4,1,3,2,4,4,4];
attribute=[2,2,2,1,1,2,1,2,1,2,2,1,2,1,1,2,1,2,1,2,1,1,1,2,1,2,1,1,1,1,1,1,1,1,1,2,2,1,2,1,2,2,1,2,2,1,2,1,1,1,1,1,2,2,2,2,1,1,2,1,1,2,2,1,2,1,1,1,2,2,1,1,2,1,2,1,2,1,1,1,1,2,2,1,1,2,1,1,2,1,2,2,1,2,1,2,2,1,1,2];

upper_bound_integer_objective=11530967;
mult_factor_total_runtime=20301;
mult_factor_finished_toolate=201;
mult_factor_total_setuptimes=0;
mult_factor_total_setupcosts=1;
running_time_bound=567;
min_duration=1;
max_duration=10;
max_setup_time=3;
max_setup_cost=2;
